495547
8,31,21,100,69,77,72,79,85,70,94,75,43,80,14,89,24,44,28,58,102,74,92,60,68,41,99,32,103,35,37,105,36,42,47,26,29,88,6,86,9,34,50,19,87,15,96,104,3,76,12,4,83,13,93,25,63,95,67,84,2,90,73,78,54,101,57,59,66,10,97,62,11,91,33,49,46,64,20,56,81,106,30,16,65,82,38,71,39,18,52,40,51,61,1,7,53,48,27,23,98,5,55,45,17,22